11 18

4 11 3 14 11 14 10 15
18 13 6 4 16 6 8 14 14 4 9 7
8 4 11 13 2 4 3 3 4 5 5 5
4 9 8 11 1 7 17 9 5 6
14 9 4 7 5 7 1 13 11 2
3 15 12 13 13 7 6 4 15 6
14 15 12 6 6 8 15 7 1 13 8 15
10 13 2 13 5 9 9 8 11 9
11 14 9 9 10 14 7 6 16 9 12 13
12 5 13 13 1 10 18 3
17 14 12 11 1 8 6 11
